num_offers = 25;
num_halls = 10;
start=[37,65,58,20,87,7,7,31,2,37,35,74,51,37,55,10,18,23,85,35,16,14,78,33,17];
end=[62,86,66,81,88,84,77,64,42,40,93,92,79,43,80,53,52,88,94,84,92,24,98,72,78];
price=[1591,773,247,2219,94,2956,5535,665,3294,160,3477,1380,1432,134,1991,1295,1709,3821,531,3438,6049,813,1278,1976,5955];
requirement=[389,847,644,516,853,392,284,699,821,862,281,904,500,411,679,444,311,748,573,716,555,300,747,921,481];
capacity=[569,856,640,640,424,913,905,524,532,351];
